80
937
4
20
43
15
9
0 1
0 6
0 8
0 11
0 13
0 14
0 20
0 23
0 29
0 32
0 33
0 34
0 37
0 38
0 41
0 44
0 46
0 47
0 48
0 52
0 54
0 57
0 62
0 65
0 66
0 67
0 68
0 69
0 72
0 73
0 75
0 76
0 77
0 79
1 2
1 3
1 5
1 6
1 7
1 8
1 13
1 17
1 23
1 31
1 33
1 36
1 37
1 43
1 44
1 55
1 57
1 58
1 61
1 62
1 69
1 76
1 78
1 79
2 4
2 5
2 11
2 12
2 13
2 19
2 21
2 27
2 31
2 39
2 43
2 44
2 45
2 46
2 54
2 61
2 63
2 70
2 73
2 77
2 78
3 6
3 7
3 8
3 11
3 12
3 14
3 15
3 17
3 18
3 36
3 37
3 39
3 47
3 51
3 54
3 56
3 60
3 63
3 64
3 65
3 73
3 75
4 6
4 10
4 16
4 18
4 22
4 25
4 30
4 32
4 37
4 42
4 44
4 46
4 50
4 51
4 53
4 56
4 60
4 61
4 70
4 72
4 73
4 74
4 76
4 77
5 6
5 13
5 15
5 17
5 21
5 25
5 35
5 36
5 37
5 42
5 44
5 49
5 51
5 52
5 53
5 55
5 57
5 58
5 61
5 63
5 64
5 67
5 71
5 73
5 74
5 78
6 7
6 8
6 12
6 19
6 20
6 21
6 23
6 25
6 35
6 37
6 41
6 44
6 49
6 50
6 52
6 54
6 57
6 59
6 60
6 65
6 71
6 72
6 74
7 9
7 17
7 24
7 29
7 44
7 55
7 58
7 65
7 66
7 67
7 74
7 76
7 77
8 14
8 20
8 25
8 29
8 31
8 34
8 37
8 45
8 46
8 48
8 49
8 56
8 57
8 59
8 64
8 65
8 66
8 67
8 68
8 70
8 76
9 10
9 12
9 17
9 19
9 23
9 27
9 29
9 30
9 32
9 36
9 38
9 40
9 41
9 48
9 51
9 56
9 66
9 67
9 70
9 73
9 74
10 15
10 16
10 17
10 18
10 21
10 29
10 42
10 43
10 45
10 46
10 51
10 53
10 54
10 60
10 61
10 62
10 64
10 66
10 67
10 69
10 74
10 76
11 12
11 13
11 19
11 22
11 24
11 35
11 36
11 39
11 40
11 45
11 46
11 48
11 52
11 53
11 54
11 56
11 58
11 62
11 63
11 68
11 70
11 72
11 73
11 75
11 77
11 79
12 16
12 17
12 19
12 21
12 27
12 31
12 32
12 33
12 45
12 48
12 49
12 50
12 55
12 62
12 64
12 65
12 67
12 69
12 74
12 76
13 18
13 25
13 36
13 38
13 46
13 47
13 48
13 50
13 53
13 55
13 56
13 63
13 67
13 74
13 75
13 76
14 19
14 21
14 25
14 28
14 35
14 36
14 38
14 39
14 43
14 47
14 53
14 54
14 58
14 60
14 63
14 69
14 74
15 18
15 21
15 22
15 23
15 28
15 30
15 31
15 32
15 35
15 39
15 45
15 47
15 50
15 59
15 66
15 67
15 73
15 74
15 75
15 78
16 18
16 20
16 21
16 33
16 39
16 40
16 43
16 44
16 45
16 47
16 60
16 62
16 64
16 65
16 66
16 70
16 71
16 72
16 75
16 77
16 78
17 18
17 32
17 37
17 38
17 40
17 42
17 46
17 48
17 55
17 58
17 62
17 66
17 73
17 75
17 76
17 77
18 21
18 30
18 31
18 32
18 35
18 37
18 38
18 40
18 43
18 50
18 52
18 54
18 61
18 62
18 63
18 64
18 66
18 74
18 75
19 25
19 26
19 31
19 33
19 34
19 41
19 45
19 56
19 57
19 58
19 62
19 63
19 64
19 67
19 71
19 74
20 22
20 24
20 27
20 31
20 33
20 35
20 36
20 37
20 41
20 49
20 51
20 57
20 61
20 62
20 63
20 67
20 68
20 74
20 75
20 78
20 79
21 23
21 24
21 34
21 37
21 38
21 40
21 43
21 47
21 51
21 59
21 60
21 70
21 71
21 76
22 24
22 27
22 28
22 31
22 33
22 36
22 37
22 38
22 39
22 41
22 46
22 47
22 49
22 57
22 60
22 66
22 70
22 76
22 77
22 78
23 24
23 27
23 32
23 34
23 44
23 46
23 48
23 49
23 53
23 57
23 62
23 63
23 64
23 66
23 73
23 77
24 27
24 30
24 36
24 39
24 45
24 46
24 51
24 52
24 53
24 65
24 74
24 77
25 26
25 29
25 30
25 34
25 35
25 38
25 40
25 42
25 43
25 51
25 61
25 70
25 75
25 77
26 28
26 29
26 30
26 31
26 33
26 35
26 38
26 45
26 47
26 48
26 54
26 56
26 62
26 64
26 65
26 72
26 73
26 75
27 31
27 36
27 39
27 41
27 44
27 49
27 66
27 69
27 71
27 73
27 76
27 77
28 41
28 45
28 49
28 51
28 52
28 53
28 54
28 55
28 56
28 64
28 66
28 68
28 69
28 70
28 76
28 79
29 38
29 39
29 42
29 46
29 47
29 49
29 53
29 56
29 57
29 61
29 64
29 67
29 68
29 70
29 71
29 75
30 31
30 43
30 53
30 54
30 58
30 65
30 67
30 73
30 77
30 78
31 33
31 42
31 43
31 46
31 47
31 48
31 50
31 52
31 57
31 58
31 65
31 66
31 68
31 71
31 72
31 74
31 77
32 33
32 37
32 40
32 47
32 52
32 55
32 57
32 59
32 65
32 71
32 72
32 77
33 34
33 42
33 44
33 47
33 48
33 50
33 53
33 54
33 62
33 66
33 70
33 78
34 37
34 40
34 41
34 42
34 43
34 44
34 47
34 48
34 49
34 50
34 52
34 53
34 55
34 56
34 59
34 64
34 66
34 67
34 68
34 70
34 73
34 77
34 79
35 38
35 42
35 45
35 46
35 48
35 57
35 60
35 61
35 62
35 64
35 70
35 74
35 76
35 77
35 78
35 79
36 40
36 47
36 52
36 53
36 56
36 59
36 62
36 64
36 65
36 69
36 70
36 71
36 74
37 42
37 43
37 46
37 60
37 61
37 62
37 64
37 70
37 71
37 73
37 75
37 76
37 79
38 41
38 42
38 44
38 47
38 53
38 56
38 62
38 65
38 66
38 68
38 69
38 73
38 75
38 76
39 42
39 46
39 50
39 54
39 57
39 58
39 59
39 60
39 61
39 64
39 68
39 72
39 73
39 74
40 43
40 44
40 53
40 60
40 61
40 62
40 64
40 69
40 76
40 77
40 79
41 45
41 51
41 52
41 53
41 60
41 65
41 68
41 69
41 74
41 78
42 48
42 49
42 50
42 51
42 53
42 56
42 60
42 72
42 78
43 44
43 48
43 50
43 51
43 59
43 60
43 62
43 63
43 64
43 66
43 67
43 69
44 46
44 53
44 59
44 62
44 66
44 71
44 72
45 51
45 52
45 55
45 60
45 63
45 66
45 68
45 72
45 75
46 56
46 58
46 60
46 70
46 71
46 72
46 76
46 78
47 51
47 54
47 60
47 62
47 63
47 64
47 65
47 68
47 69
47 71
47 72
48 52
48 53
48 55
48 59
48 65
48 66
48 71
48 76
48 79
49 54
49 56
49 58
49 67
49 68
49 70
49 75
49 77
49 79
50 53
50 54
50 58
50 65
50 67
50 68
50 70
50 77
51 52
51 56
51 61
51 64
51 65
51 68
51 69
51 71
51 72
51 73
51 74
51 79
52 56
52 57
52 58
52 62
52 69
52 70
52 72
52 74
52 75
53 59
53 60
53 63
53 64
53 72
53 73
53 78
54 55
54 56
54 57
54 61
54 64
54 68
54 74
54 76
55 56
55 61
55 64
55 65
55 67
55 71
55 74
55 75
55 79
56 58
56 61
56 68
56 69
56 70
57 68
57 71
57 75
58 63
58 65
59 66
59 67
59 70
59 71
59 72
59 73
60 61
60 63
60 72
61 73
61 77
61 78
62 64
62 65
62 74
62 75
62 78
63 66
63 67
63 69
63 76
63 78
63 79
64 66
64 67
65 72
65 76
65 77
66 69
66 71
66 77
66 78
66 79
67 68
67 69
67 72
67 75
67 79
68 70
68 72
68 74
68 76
70 71
71 73
71 74
71 75
71 79
73 75
73 77
73 78
73 79
76 79
77 78
78 79
19 41 69 71 73 67 12 58 61 79 55 39 35 66 10 78 24 56 13 18
60 21 0 11 23 45 28 62 32 16 65 54 46 15 70 48 27 52 4 43
59 76 33 77 22 26 29 1 5 40 36 2 17 14 20 49 34 9 37 30
42 50 31 6 25 44 53 68 38 47 72 7 74 64 8 63 3 75 51 57
